nNurses = 78;
nHours = 29;
minHours = 7;
maxHours = 15;
maxConsec = 12;
maxPresence = 17;
demand = [11, 13, 10, 12, 16, 11, 11, 13, 17, 18, 21, 25, 29, 24, 24, 29, 26, 22, 27, 26, 24, 23, 19, 22, 17, 12, 17, 22, 21];
